%mem=20GB
%nprocshared=6
#p opt b3lyp/6-31g* 

Slightly better guess

0 1
C -7.381971 0.710635 -2.849526
N -7.593987 1.874026 -2.083294
C -6.010742 0.244264 -2.900859
C -5.646914 -0.981780 -2.448837
N -4.453274 -1.176624 -1.654280
C -4.674132 -2.287406 -0.954208
C -5.872212 -3.039267 -1.468345
C -6.486523 -2.207090 -2.352802
C -4.268554 -2.618275 0.393460
C -4.211061 -1.663294 1.362860
N -3.916006 -0.280014 1.216412
C -4.918005 0.410651 1.984841
C -5.459830 -0.580574 2.953719
C -4.922594 -1.800556 2.668127
C -5.242734 1.708922 1.785152
C -8.645004 0.137528 -3.093562
C -9.610353 0.876102 -2.332712
C -8.915454 1.877867 -1.623982
C -9.298621 2.657999 -0.454864
C -8.521097 2.645992 0.655591
C -8.644301 3.477712 1.920356
C -7.301598 3.234697 2.657132
C -6.612798 2.213720 1.769418
N -7.328072 1.863604 0.724841
H -6.855402 2.362117 -1.641009
H -5.235580 1.021316 -3.048196
H -6.149376 -4.032467 -1.129924
H -7.405218 -2.344725 -2.917988
H -4.305962 -3.681277 0.671648
H -3.724679 0.077392 0.305029
H -6.133483 -0.299554 3.760646
H -5.027157 -2.746462 3.194238
H -4.536600 2.383481 1.265185
H -8.851489 -0.716368 -3.731381
H -10.676024 0.677171 -2.284190
H -10.235906 3.228259 -0.501323
H -9.509059 3.137217 2.538905
H -8.782111 4.557561 1.676131
H -7.461352 2.825294 3.682595
H -6.699812 4.171097 2.734504

